NAME          BLANK   
ROWS
 N  OBJROW
 G  row-1
 G  row-2
 G  row-3
 G  row-4
 G  row-5
COLUMNS
    x(1)      OBJROW    2.             row-1     1.          
    x(1)      row-2     1.             row-3     3.          
    x(1)      row-4     1.          
    x(2)      OBJROW    3.             row-1     1.          
    x(2)      row-2     2.             row-3     2.          
    x(2)      row-5     1.          
    x(3)      OBJROW    4.             row-1     1.          
    x(3)      row-2     1.             row-4     1.          
    x(4)      OBJROW    1.             row-1     1.          
RHS
    RHS       row-1     9.5            row-2     3.5         
    RHS       row-3     1.5            row-4     0.5         
    RHS       row-5     0.5         
ENDATA
